NAME PROB
ROWS
  N  obj
  L  c0  
  L  c1  
COLUMNS
  x0  obj  -40.0
  x0  c0  1.0
  x0  c1  2.0
  x1  obj  -30.0
  x1  c0  1.0
  x1  c1  1.0
RHS
  rhs  obj  0.0
  rhs  c0  12.0
  rhs  c1  16.0
RANGES
  rhs  c0  Infinity
  rhs  c1  Infinity
BOUNDS
  LO BOUND  x0  0.0
  LO BOUND  x1  0.0
ENDATA
